HFSDDW
15	8	4
0	26	1	50	2	76	3	7
0	62	1	59	2	95	3	58
0	81	1	52	2	60	3	76
0	5	1	47	2	8	3	40
0	86	1	45	2	78	3	70
0	73	1	28	2	73	3	54
0	84	1	35	2	33	3	95
0	33	1	46	2	9	3	62
0	25	1	95	2	51	3	43
0	25	1	5	2	22	3	52
0	70	1	48	2	71	3	25
0	34	1	63	2	88	3	21
0	41	1	93	2	16	3	11
0	42	1	1	2	68	3	98
0	77	1	22	2	23	3	27
LBCmax: 470
RELDUE
-1	214	3	6
-1	423	5	2
-1	211	2	5
-1	242	2	5
-1	263	4	3
-1	419	9	2
-1	288	3	3
-1	166	5	6
-1	413	1	8
-1	324	9	3
-1	183	7	3
-1	371	4	8
-1	204	4	2
-1	214	8	3
-1	422	7	8
DDW
199	229
347	499
203	219
240	244
239	287
381	457
268	308
164	168
409	417
269	379
178	188
334	408
167	241
210	218
384	460
